(declare-fun var0 () String)
(assert (RegexIn var0 (RegexConcat (RegexPlus (RegexPlus (Str2Reg "u"))) (RegexConcat (RegexUnion (RegexStar (Str2Reg "s")) (RegexStar (Str2Reg "ttt"))) (RegexConcat (RegexStar (RegexPlus (Str2Reg "rrr"))) (RegexConcat (RegexPlus (RegexStar (Str2Reg "qq"))) (RegexConcat (RegexPlus (RegexUnion (Str2Reg "ooo") (Str2Reg "p"))) (RegexConcat (RegexUnion (RegexStar (Str2Reg "mmm")) (RegexPlus (Str2Reg "nn"))) (RegexConcat (RegexStar (RegexPlus (Str2Reg "l"))) (RegexConcat (RegexUnion (RegexStar (Str2Reg "j")) (RegexPlus (Str2Reg "kk"))) (RegexConcat (RegexStar (RegexPlus (Str2Reg "iii"))) (RegexConcat (RegexPlus (RegexPlus (Str2Reg "hhh"))) (RegexConcat (RegexPlus (RegexStar (Str2Reg "gg"))) (RegexConcat (RegexUnion (RegexUnion (Str2Reg "ddd") (Str2Reg "ee")) (RegexPlus (Str2Reg "ff"))) (RegexConcat (RegexStar (RegexStar (Str2Reg "c"))) (RegexConcat (RegexUnion (RegexPlus (Str2Reg "aaa")) (RegexPlus (Str2Reg "bb"))) (RegexConcat (RegexStar (RegexUnion (Str2Reg "88") (Str2Reg "9"))) (RegexConcat (RegexUnion (RegexUnion (Str2Reg "55") (Str2Reg "6")) (RegexPlus (Str2Reg "7"))) (RegexConcat (RegexStar (RegexPlus (Str2Reg "444"))) (RegexConcat (RegexUnion (RegexPlus (Str2Reg "222")) (RegexPlus (Str2Reg "333"))) (RegexConcat (RegexPlus (RegexStar (Str2Reg "111"))) (RegexConcat (RegexUnion (RegexUnion (Str2Reg "}") (Str2Reg "~~~")) (RegexPlus (Str2Reg "000"))) (RegexConcat (RegexStar (RegexPlus (Str2Reg "||"))) (RegexConcat (RegexStar (RegexPlus (Str2Reg "{{{"))) (RegexConcat (RegexUnion (RegexStar (Str2Reg "_")) (RegexStar (Str2Reg "``"))) (RegexConcat (RegexUnion (RegexPlus (Str2Reg "]")) (RegexStar (Str2Reg "^^"))) (RegexConcat (RegexPlus (RegexPlus (Str2Reg "\\\\\\"))) (RegexConcat (RegexStar (RegexStar (Str2Reg "["))) (RegexConcat (RegexUnion (RegexPlus (Str2Reg "???")) (RegexPlus (Str2Reg "@@"))) (RegexConcat (RegexPlus (RegexUnion (Str2Reg "===") (Str2Reg ">>>"))) (RegexConcat (RegexStar (RegexStar (Str2Reg "<<"))) (RegexConcat (RegexPlus (RegexPlus (Str2Reg ";;"))) (RegexConcat (RegexUnion (RegexStar (Str2Reg "/")) (RegexStar (Str2Reg ":"))) (RegexConcat (RegexUnion (RegexStar (Str2Reg ",,,")) (RegexUnion (Str2Reg "---") (Str2Reg "..."))) (RegexConcat (RegexStar (RegexPlus (Str2Reg "+++"))) (RegexConcat (RegexUnion (RegexUnion (Str2Reg "''") (Str2Reg "((")) (RegexUnion (Str2Reg ")))") (Str2Reg "**"))) (RegexConcat (RegexUnion (RegexUnion (Str2Reg "$$$") (Str2Reg "%")) (RegexStar (Str2Reg "&"))) (RegexConcat (RegexPlus (RegexPlus (Str2Reg "###"))) (RegexConcat (RegexUnion (RegexUnion (Str2Reg "ZZZ") (Str2Reg "!!")) (RegexStar (Str2Reg "\"\"\""))) (RegexConcat (RegexUnion (RegexStar (Str2Reg "X")) (RegexPlus (Str2Reg "Y"))) (RegexConcat (RegexStar (RegexPlus (Str2Reg "W"))) (RegexConcat (RegexPlus (RegexPlus (Str2Reg "VV"))) (RegexConcat (RegexPlus (RegexPlus (Str2Reg "UUU"))) (RegexConcat (RegexPlus (RegexPlus (Str2Reg "T"))) (RegexConcat (RegexStar (RegexPlus (Str2Reg "S"))) (RegexConcat (RegexPlus (RegexUnion (Str2Reg "Q") (Str2Reg "RR"))) (RegexConcat (RegexStar (RegexStar (Str2Reg "PP"))) (RegexConcat (RegexUnion (RegexPlus (Str2Reg "NNN")) (RegexStar (Str2Reg "OO"))) (RegexConcat (RegexUnion (RegexStar (Str2Reg "LL")) (RegexStar (Str2Reg "M"))) (RegexConcat (RegexUnion (RegexStar (Str2Reg "II")) (RegexUnion (Str2Reg "J") (Str2Reg "K"))) (RegexConcat (RegexPlus (RegexUnion (Str2Reg "GGG") (Str2Reg "H"))) (RegexConcat (RegexStar (RegexStar (Str2Reg "F"))) (RegexConcat (RegexPlus (RegexUnion (Str2Reg "DD") (Str2Reg "EE"))) (RegexConcat (RegexPlus (RegexUnion (Str2Reg "BBB") (Str2Reg "C"))) (RegexConcat (RegexUnion (RegexPlus (Str2Reg "zz")) (RegexPlus (Str2Reg "A"))) (RegexConcat (RegexStar (RegexUnion (Str2Reg "xxx") (Str2Reg "yy"))) (RegexConcat (RegexUnion (RegexStar (Str2Reg "vvv")) (RegexStar (Str2Reg "www"))) (RegexConcat (RegexPlus (RegexPlus (Str2Reg "uuu"))) (RegexConcat (RegexStar (RegexUnion (Str2Reg "sss") (Str2Reg "tt"))) (RegexConcat (RegexUnion (RegexPlus (Str2Reg "q")) (RegexStar (Str2Reg "r"))) (RegexConcat (RegexUnion (RegexPlus (Str2Reg "ooo")) (RegexPlus (Str2Reg "pp"))) (RegexConcat (RegexPlus (RegexPlus (Str2Reg "nnn"))) (RegexConcat (RegexUnion (RegexStar (Str2Reg "ll")) (RegexPlus (Str2Reg "m"))) (RegexConcat (RegexUnion (RegexUnion (Str2Reg "iii") (Str2Reg "jj")) (RegexPlus (Str2Reg "kkk"))) (RegexConcat (RegexStar (RegexStar (Str2Reg "hh"))) (RegexConcat (RegexStar (RegexStar (Str2Reg "gg"))) (RegexConcat (RegexUnion (RegexUnion (Str2Reg "dd") (Str2Reg "ee")) (RegexPlus (Str2Reg "f"))) (RegexConcat (RegexStar (RegexUnion (Str2Reg "bbb") (Str2Reg "cc"))) (RegexConcat (RegexUnion (RegexUnion (Str2Reg "88") (Str2Reg "9")) (RegexStar (Str2Reg "a"))) (RegexConcat (RegexPlus (RegexUnion (Str2Reg "66") (Str2Reg "777"))) (RegexConcat (RegexStar (RegexPlus (Str2Reg "555"))) (RegexConcat (RegexUnion (RegexStar (Str2Reg "3")) (RegexStar (Str2Reg "4"))) (RegexUnion (RegexPlus (Str2Reg "00")) (RegexUnion (Str2Reg "11") (Str2Reg "22")))))))))))))))))))))))))))))))))))))))))))))))))))))))))))))))))))))))))))
(check-sat)